language ESSENCE' 1.0
letting lastdx=98
letting cage be [
[21,5,12,6,12,0,0, 0,0, 0,0],
[23,15,10,15,11,14,11,0,0, 0,0],
[18,16,5,16,4,15,4,0,0, 0,0],
[11,14,15,14,14,0,0, 0,0, 0,0],
[25,12,10,13,10,13,9,13,8,0,0],
[6,12,6,0,0, 0,0, 0,0, 0,0],
[17,7,9,6,9,0,0, 0,0, 0,0],
[4,8,13,0,0, 0,0, 0,0, 0,0],
[41,9,6,8,6,8,5,7,5,7,6],
[4,13,4,0,0, 0,0, 0,0, 0,0],
[1,6,15,0,0, 0,0, 0,0, 0,0],
[12,15,13,0,0, 0,0, 0,0, 0,0],
[48,6,5,6,6,5,6,5,7,5,8],
[39,3,5,3,6,3,7,4,7,4,8],
[27,9,10,10,10,0,0, 0,0, 0,0],
[12,14,12,14,13,13,13,0,0, 0,0],
[5,3,3,0,0, 0,0, 0,0, 0,0],
[31,4,5,4,6,4,4,3,4,2,4],
[13,8,8,0,0, 0,0, 0,0, 0,0],
[19,3,12,2,12,2,11,0,0, 0,0],
[6,15,15,0,0, 0,0, 0,0, 0,0],
[17,9,13,9,12,8,12,7,12,0,0],
[1,4,16,0,0, 0,0, 0,0, 0,0],
[13,14,1,15,1,16,1,0,0, 0,0],
[8,13,16,0,0, 0,0, 0,0, 0,0],
[20,12,8,12,7,0,0, 0,0, 0,0],
[9,3,1,3,2,0,0, 0,0, 0,0],
[38,15,9,15,8,14,8,14,7,15,7],
[14,15,12,0,0, 0,0, 0,0, 0,0],
[21,1,1,2,1,0,0, 0,0, 0,0],
[32,12,14,13,14,13,15,12,15,0,0],
[34,12,11,12,12,13,12,13,11,0,0],
[23,6,13,5,13,0,0, 0,0, 0,0],
[11,16,15,0,0, 0,0, 0,0, 0,0],
[14,6,1,0,0, 0,0, 0,0, 0,0],
[41,11,6,10,6,10,5,10,4,10,3],
[35,1,12,1,11,1,10,0,0, 0,0],
[24,4,13,4,12,0,0, 0,0, 0,0],
[38,5,1,4,1,4,2,0,0, 0,0],
[18,14,5,13,5,12,5,0,0, 0,0],
[13,15,14,0,0, 0,0, 0,0, 0,0],
[37,2,15,3,15,3,16,2,16,1,16],
[39,5,14,6,14,7,14,7,13,8,14],
[26,2,13,3,13,0,0, 0,0, 0,0],
[40,9,16,10,16,11,16,12,16,0,0],
[3,6,8,0,0, 0,0, 0,0, 0,0],
[25,14,3,14,4,0,0, 0,0, 0,0],
[10,12,4,0,0, 0,0, 0,0, 0,0],
[26,5,5,5,4,5,3,4,3,0,0],
[10,12,1,13,1,0,0, 0,0, 0,0],
[16,12,13,0,0, 0,0, 0,0, 0,0],
[37,12,3,12,2,11,2,10,2,0,0],
[34,11,10,11,9,12,9,11,8,0,0],
[36,14,2,13,2,13,3,0,0, 0,0],
[29,14,10,14,9,0,0, 0,0, 0,0],
[3,1,13,0,0, 0,0, 0,0, 0,0],
[13,10,12,0,0, 0,0, 0,0, 0,0],
[11,16,9,16,10,0,0, 0,0, 0,0],
[4,10,8,0,0, 0,0, 0,0, 0,0],
[18,15,5,15,6,0,0, 0,0, 0,0],
[12,9,9,10,9,0,0, 0,0, 0,0],
[27,1,4,1,3,2,3,0,0, 0,0],
[7,6,16,0,0, 0,0, 0,0, 0,0],
[24,16,16,15,16,14,16,0,0, 0,0],
[5,2,9,0,0, 0,0, 0,0, 0,0],
[44,2,7,1,7,1,8,1,9,2,8],
[31,10,13,11,13,11,12,11,11,0,0],
[10,10,7,11,7,0,0, 0,0, 0,0],
[50,7,15,7,16,8,16,8,15,9,15],
[29,7,7,6,7,7,8,0,0, 0,0],
[11,5,10,6,10,0,0, 0,0, 0,0],
[45,16,12,16,11,16,13,16,14,0,0],
[16,11,5,0,0, 0,0, 0,0, 0,0],
[4,3,11,0,0, 0,0, 0,0, 0,0],
[11,7,3,0,0, 0,0, 0,0, 0,0],
[22,9,4,9,5,0,0, 0,0, 0,0],
[16,2,6,0,0, 0,0, 0,0, 0,0],
[9,1,2,2,2,0,0, 0,0, 0,0],
[13,7,2,0,0, 0,0, 0,0, 0,0],
[3,6,4,7,4,0,0, 0,0, 0,0],
[31,1,6,1,5,2,5,0,0, 0,0],
[40,11,1,10,1,9,1,9,2,0,0],
[14,2,10,3,10,0,0, 0,0, 0,0],
[9,16,8,0,0, 0,0, 0,0, 0,0],
[17,16,6,16,7,0,0, 0,0, 0,0],
[39,4,10,4,11,5,11,6,11,0,0],
[17,1,14,1,15,0,0, 0,0, 0,0],
[24,2,14,3,14,0,0, 0,0, 0,0],
[4,5,2,0,0, 0,0, 0,0, 0,0],
[24,6,2,6,3,0,0, 0,0, 0,0],
[15,7,1,0,0, 0,0, 0,0, 0,0],
[8,7,10,7,11,0,0, 0,0, 0,0],
[40,8,1,8,2,8,3,8,4,9,3],
[22,8,7,9,7,9,8,0,0, 0,0],
[11,9,14,10,14,0,0, 0,0, 0,0],
[26,10,15,11,15,11,14,0,0, 0,0],
[13,11,3,11,4,0,0, 0,0, 0,0],
[34,13,6,13,7,14,6,0,0, 0,0],
[40,15,2,15,3,16,3,16,2,0,0]
]
